; benchmark generated from python API
(set-info :status unknown)
(declare-fun x_day () Int)
(declare-fun x_month () Int)
(declare-fun x_year () Int)
(declare-fun x_epoch () Int)
(declare-fun y_day () Int)
(declare-fun y_month () Int)
(declare-fun y_year () Int)
(declare-fun y_epoch () Int)
(declare-fun z_day () Int)
(declare-fun z_month () Int)
(declare-fun z_year () Int)
(declare-fun z_epoch () Int)
(declare-fun x_shift_period_109343_day () Int)
(declare-fun x_shift_period_109343_month () Int)
(declare-fun x_shift_period_109343_year () Int)
(declare-fun x_shift_period_109343_epoch () Int)
(declare-fun x_shift_period_111934_day () Int)
(declare-fun x_shift_period_111934_month () Int)
(declare-fun x_shift_period_111934_year () Int)
(declare-fun x_shift_period_111934_epoch () Int)
(assert
 (let (($x568 (> x_month 2)))
 (let (($x672 (= (mod x_year 4) 0)))
 (let (($x356 (= (mod x_year 100) 0)))
 (let (($x938 (= (mod x_year 400) 0)))
 (let (($x1010 (ite $x938 true (ite $x356 false $x672))))
 (let (($x652 (= x_month 9)))
 (let ((?x567 (ite $x652 243 (ite (= x_month 10) 273 (ite (= x_month 11) 304 334)))))
 (let (($x395 (= x_month 6)))
 (let ((?x112 (ite $x395 151 (ite (= x_month 7) 181 (ite (= x_month 8) 212 ?x567)))))
 (let (($x788 (= x_month 4)))
 (let (($x231 (= x_month 3)))
 (let (($x620 (= x_month 2)))
 (let ((?x315 (ite $x620 31 (ite $x231 59 (ite $x788 90 (ite (= x_month 5) 120 ?x112))))))
 (let (($x503 (= x_month 1)))
 (let ((?x943 (ite $x503 0 ?x315)))
 (let ((?x1268 (- (+ (* 365 (- x_year 1)) (div (- x_year 1) 4)) (div (- x_year 1) 100))))
 (let ((?x328 (+ (+ ?x1268 (div (- x_year 1) 400)) (+ ?x943 (ite (and $x1010 $x568) 1 0)))))
 (let (($x182 (<= x_year 2400)))
 (let (($x1406 (>= x_year 1600)))
 (let ((?x564 (ite (or $x788 $x395 $x652 (= x_month 11)) 30 31)))
 (let ((?x889 (ite $x620 (ite $x1010 29 28) ?x564)))
 (let (($x1426 (>= x_day 1)))
 (let (($x150 (<= x_month 12)))
 (let (($x1627 (>= x_month 1)))
 (and $x1627 $x150 $x1426 (<= x_day ?x889) $x1406 $x182 (= x_epoch (+ ?x328 (- x_day 1)))))))))))))))))))))))))))))
(assert
 (let (($x869 (= x_day 31)))
 (let (($x503 (= x_month 1)))
 (let (($x5297 (= x_year 2023)))
 (and $x5297 $x503 $x869)))))
(assert
 (let (($x855 (= (mod y_year 4) 0)))
 (let (($x310 (= (mod y_year 100) 0)))
 (let (($x441 (= (mod y_year 400) 0)))
 (let (($x1290 (ite $x441 true (ite $x310 false $x855))))
 (let (($x926 (= y_month 9)))
 (let ((?x3034 (ite $x926 243 (ite (= y_month 10) 273 (ite (= y_month 11) 304 334)))))
 (let (($x2940 (= y_month 6)))
 (let ((?x3469 (ite $x2940 151 (ite (= y_month 7) 181 (ite (= y_month 8) 212 ?x3034)))))
 (let (($x2900 (= y_month 4)))
 (let (($x491 (= y_month 3)))
 (let (($x387 (= y_month 2)))
 (let ((?x2544 (ite $x387 31 (ite $x491 59 (ite $x2900 90 (ite (= y_month 5) 120 ?x3469))))))
 (let (($x379 (= y_month 1)))
 (let ((?x3047 (ite $x379 0 ?x2544)))
 (let ((?x3482 (- (+ (* 365 (- y_year 1)) (div (- y_year 1) 4)) (div (- y_year 1) 100))))
 (let ((?x440 (+ (+ ?x3482 (div (- y_year 1) 400)) (+ ?x3047 (ite (and $x1290 (> y_month 2)) 1 0)))))
 (let (($x1425 (<= y_year 2400)))
 (let (($x148 (>= y_year 1600)))
 (let ((?x1762 (ite (or $x2900 $x2940 $x926 (= y_month 11)) 30 31)))
 (let ((?x179 (ite $x387 (ite $x1290 29 28) ?x1762)))
 (let (($x582 (>= y_day 1)))
 (let (($x691 (<= y_month 12)))
 (let (($x818 (>= y_month 1)))
 (and $x818 $x691 $x582 (<= y_day ?x179) $x148 $x1425 (= y_epoch (+ ?x440 (- y_day 1))))))))))))))))))))))))))))
(assert
 (let (($x5489 (= (mod z_year 4) 0)))
 (let (($x1213 (= (mod z_year 100) 0)))
 (let (($x3784 (= (mod z_year 400) 0)))
 (let (($x4592 (ite $x3784 true (ite $x1213 false $x5489))))
 (let (($x4497 (= z_month 9)))
 (let ((?x4756 (ite $x4497 243 (ite (= z_month 10) 273 (ite (= z_month 11) 304 334)))))
 (let (($x1869 (= z_month 6)))
 (let ((?x3372 (ite $x1869 151 (ite (= z_month 7) 181 (ite (= z_month 8) 212 ?x4756)))))
 (let (($x4595 (= z_month 4)))
 (let ((?x5143 (ite (= z_month 3) 59 (ite $x4595 90 (ite (= z_month 5) 120 ?x3372)))))
 (let (($x3790 (= z_month 2)))
 (let ((?x4293 (ite (= z_month 1) 0 (ite $x3790 31 ?x5143))))
 (let ((?x2288 (- (+ (* 365 (- z_year 1)) (div (- z_year 1) 4)) (div (- z_year 1) 100))))
 (let ((?x5310 (+ (+ ?x2288 (div (- z_year 1) 400)) (+ ?x4293 (ite (and $x4592 (> z_month 2)) 1 0)))))
 (let (($x5001 (<= z_year 2400)))
 (let (($x636 (>= z_year 1600)))
 (let ((?x5186 (ite (or $x4595 $x1869 $x4497 (= z_month 11)) 30 31)))
 (let (($x4669 (>= z_day 1)))
 (let (($x2304 (<= z_month 12)))
 (let (($x4417 (>= z_month 1)))
 (and $x4417 $x2304 $x4669 (<= z_day (ite $x3790 (ite $x4592 29 28) ?x5186)) $x636 $x5001 (= z_epoch (+ ?x5310 (- z_day 1)))))))))))))))))))))))))
(assert
 (let (($x1283 (= (mod x_shift_period_109343_year 4) 0)))
 (let (($x5078 (= (mod x_shift_period_109343_year 100) 0)))
 (let (($x3333 (= (mod x_shift_period_109343_year 400) 0)))
 (let (($x5131 (ite $x3333 true (ite $x5078 false $x1283))))
 (let ((?x4989 (ite (= x_shift_period_109343_month 10) 273 (ite (= x_shift_period_109343_month 11) 304 334))))
 (let (($x2156 (= x_shift_period_109343_month 9)))
 (let ((?x2845 (ite (= x_shift_period_109343_month 7) 181 (ite (= x_shift_period_109343_month 8) 212 (ite $x2156 243 ?x4989)))))
 (let (($x5122 (= x_shift_period_109343_month 6)))
 (let (($x5132 (= x_shift_period_109343_month 4)))
 (let ((?x2120 (ite $x5132 90 (ite (= x_shift_period_109343_month 5) 120 (ite $x5122 151 ?x2845)))))
 (let (($x5062 (= x_shift_period_109343_month 2)))
 (let ((?x4961 (ite (= x_shift_period_109343_month 1) 0 (ite $x5062 31 (ite (= x_shift_period_109343_month 3) 59 ?x2120)))))
 (let ((?x4968 (+ ?x4961 (ite (and $x5131 (> x_shift_period_109343_month 2)) 1 0))))
 (let ((?x5008 (+ (* 365 (- x_shift_period_109343_year 1)) (div (- x_shift_period_109343_year 1) 4))))
 (let ((?x4986 (+ (- ?x5008 (div (- x_shift_period_109343_year 1) 100)) (div (- x_shift_period_109343_year 1) 400))))
 (let (($x5082 (= x_shift_period_109343_epoch (+ (+ ?x4986 ?x4968) (- x_shift_period_109343_day 1)))))
 (let (($x4264 (<= x_shift_period_109343_year 2400)))
 (let (($x3352 (>= x_shift_period_109343_year 1600)))
 (let ((?x1116 (ite (or $x5132 $x5122 $x2156 (= x_shift_period_109343_month 11)) 30 31)))
 (let (($x5063 (>= x_shift_period_109343_day 1)))
 (let (($x5130 (<= x_shift_period_109343_month 12)))
 (let (($x5076 (>= x_shift_period_109343_month 1)))
 (and $x5076 $x5130 $x5063 (<= x_shift_period_109343_day (ite $x5062 (ite $x5131 29 28) ?x1116)) $x3352 $x4264 $x5082))))))))))))))))))))))))
(assert
 (let ((?x1306 (* 12 x_year)))
 (let ((?x2663 (+ ?x1306 (- x_month 1))))
 (let ((?x2554 (+ ?x2663 1)))
 (let ((?x2694 (div ?x2554 12)))
 (= x_shift_period_109343_year ?x2694))))))
(assert
 (let ((?x2262 (+ (mod (+ (+ (* 12 x_year) (- x_month 1)) 1) 12) 1)))
 (= x_shift_period_109343_month ?x2262)))
(assert
 (let ((?x2262 (+ (mod (+ (+ (* 12 x_year) (- x_month 1)) 1) 12) 1)))
 (let ((?x1156 (ite (or (= ?x2262 4) (= ?x2262 6) (= ?x2262 9) (= ?x2262 11)) 30 31)))
 (let ((?x1306 (* 12 x_year)))
 (let ((?x2663 (+ ?x1306 (- x_month 1))))
 (let ((?x2554 (+ ?x2663 1)))
 (let ((?x2694 (div ?x2554 12)))
 (let (($x2337 (ite (= (mod ?x2694 400) 0) true (ite (= (mod ?x2694 100) 0) false (= (mod ?x2694 4) 0)))))
 (let ((?x3347 (ite (= ?x2262 2) (ite $x2337 29 28) ?x1156)))
 (let ((?x3136 (ite (<= x_day ?x3347) x_day ?x3347)))
 (let (($x737 (= x_month 11)))
 (let (($x652 (= x_month 9)))
 (let (($x395 (= x_month 6)))
 (let (($x788 (= x_month 4)))
 (let ((?x564 (ite (or $x788 $x395 $x652 $x737) 30 31)))
 (let (($x672 (= (mod x_year 4) 0)))
 (let (($x356 (= (mod x_year 100) 0)))
 (let (($x938 (= (mod x_year 400) 0)))
 (let (($x1010 (ite $x938 true (ite $x356 false $x672))))
 (let (($x620 (= x_month 2)))
 (let ((?x889 (ite $x620 (ite $x1010 29 28) ?x564)))
 (let (($x242 (= x_day ?x889)))
 (let ((?x2169 (ite false (ite $x242 ?x3347 ?x3136) ?x3136)))
 (= x_shift_period_109343_day ?x2169))))))))))))))))))))))))
(assert
 (= y_epoch x_shift_period_109343_epoch))
(assert
 (let (($x1668 (= (mod x_shift_period_111934_year 4) 0)))
 (let (($x4868 (= (mod x_shift_period_111934_year 100) 0)))
 (let (($x3066 (= (mod x_shift_period_111934_year 400) 0)))
 (let (($x4213 (ite $x3066 true (ite $x4868 false $x1668))))
 (let ((?x4760 (ite (= x_shift_period_111934_month 10) 273 (ite (= x_shift_period_111934_month 11) 304 334))))
 (let (($x4822 (= x_shift_period_111934_month 9)))
 (let ((?x4238 (ite (= x_shift_period_111934_month 7) 181 (ite (= x_shift_period_111934_month 8) 212 (ite $x4822 243 ?x4760)))))
 (let (($x3261 (= x_shift_period_111934_month 6)))
 (let (($x4218 (= x_shift_period_111934_month 4)))
 (let ((?x4770 (ite $x4218 90 (ite (= x_shift_period_111934_month 5) 120 (ite $x3261 151 ?x4238)))))
 (let (($x4851 (= x_shift_period_111934_month 2)))
 (let ((?x4789 (ite (= x_shift_period_111934_month 1) 0 (ite $x4851 31 (ite (= x_shift_period_111934_month 3) 59 ?x4770)))))
 (let ((?x4177 (+ ?x4789 (ite (and $x4213 (> x_shift_period_111934_month 2)) 1 0))))
 (let ((?x3137 (+ (* 365 (- x_shift_period_111934_year 1)) (div (- x_shift_period_111934_year 1) 4))))
 (let ((?x3460 (+ (- ?x3137 (div (- x_shift_period_111934_year 1) 100)) (div (- x_shift_period_111934_year 1) 400))))
 (let (($x3533 (= x_shift_period_111934_epoch (+ (+ ?x3460 ?x4177) (- x_shift_period_111934_day 1)))))
 (let (($x2783 (<= x_shift_period_111934_year 2400)))
 (let (($x4565 (>= x_shift_period_111934_year 1600)))
 (let ((?x4823 (ite (or $x4218 $x3261 $x4822 (= x_shift_period_111934_month 11)) 30 31)))
 (let (($x4338 (>= x_shift_period_111934_day 1)))
 (let (($x4843 (<= x_shift_period_111934_month 12)))
 (let (($x1262 (>= x_shift_period_111934_month 1)))
 (and $x1262 $x4843 $x4338 (<= x_shift_period_111934_day (ite $x4851 (ite $x4213 29 28) ?x4823)) $x4565 $x2783 $x3533))))))))))))))))))))))))
(assert
 (let ((?x1625 (+ (mod (+ (+ (* 12 x_year) (- x_month 1)) 0) 12) 1)))
 (let (($x2751 (= ?x1625 11)))
 (let (($x2727 (= ?x1625 9)))
 (let (($x2718 (= ?x1625 6)))
 (let (($x2716 (= ?x1625 4)))
 (let ((?x1306 (* 12 x_year)))
 (let ((?x2663 (+ ?x1306 (- x_month 1))))
 (let ((?x2752 (+ ?x2663 0)))
 (let ((?x918 (div ?x2752 12)))
 (let (($x2214 (ite (= (mod ?x918 400) 0) true (ite (= (mod ?x918 100) 0) false (= (mod ?x918 4) 0)))))
 (let (($x2530 (= ?x1625 2)))
 (let ((?x2916 (ite $x2530 (ite $x2214 29 28) (ite (or $x2716 $x2718 $x2727 $x2751) 30 31))))
 (let ((?x1273 (ite (<= x_day ?x2916) x_day ?x2916)))
 (let (($x737 (= x_month 11)))
 (let (($x652 (= x_month 9)))
 (let (($x395 (= x_month 6)))
 (let (($x788 (= x_month 4)))
 (let ((?x564 (ite (or $x788 $x395 $x652 $x737) 30 31)))
 (let (($x672 (= (mod x_year 4) 0)))
 (let (($x356 (= (mod x_year 100) 0)))
 (let (($x938 (= (mod x_year 400) 0)))
 (let (($x1010 (ite $x938 true (ite $x356 false $x672))))
 (let (($x620 (= x_month 2)))
 (let ((?x889 (ite $x620 (ite $x1010 29 28) ?x564)))
 (let (($x242 (= x_day ?x889)))
 (let ((?x3596 (ite (= ?x1625 8) 212 (ite $x2727 243 (ite (= ?x1625 10) 273 (ite $x2751 304 334))))))
 (let ((?x1219 (ite (= ?x1625 5) 120 (ite $x2718 151 (ite (= ?x1625 7) 181 ?x3596)))))
 (let ((?x2017 (ite (= ?x1625 1) 0 (ite $x2530 31 (ite (= ?x1625 3) 59 (ite $x2716 90 ?x1219))))))
 (let ((?x3401 (- (+ (* 365 (- ?x918 1)) (div (- ?x918 1) 4)) (div (- ?x918 1) 100))))
 (let ((?x1906 (+ (+ ?x3401 (div (- ?x918 1) 400)) (+ ?x2017 (ite (and $x2214 (> ?x1625 2)) 1 0)))))
 (let ((?x2517 (+ ?x1906 (- (ite false (ite $x242 ?x2916 ?x1273) ?x1273) 1))))
 (= x_shift_period_111934_epoch (+ ?x2517 30))))))))))))))))))))))))))))))))))
(assert
 (= z_epoch x_shift_period_111934_epoch))
(assert
 (not (= y_epoch z_epoch)))
(check-sat)
